17	4
15	14	15	14	
0	0	0	0	0	3	2	3	4	
2	3	9	1	9	3	5	8	14	
4	8	8	3	10	3	8	17	17	
4	3	4	3	1	3	6	10	11	
1	1	7	6	4	3	6	7	12	
250	1	2	5	4	2	17	17	
250	7	5	7	10	3	15	16	17	
175	6	3	1	3	2	9	17	
50	1	8	7	6	3	16	17	17	
175	2	9	3	4	2	12	13	
50	8	5	3	3	3	17	17	17	
75	1	6	8	2	3	17	17	17	
4	1	9	10	7	3	15	17	17	
3	5	8	2	5	3	15	16	17	
3	3	10	4	9	3	17	17	17	
5	8	9	10	7	1	17	
0	0	0	0	0	0	
